
Gurobi 11.0.0 (win64) logging started Sun Apr 21 19:07:00 2024

Set parameter LogFile to value "./Results/StripPacking_CutsTest_RU/Logs/RU-StripPacking-21.log"
Set parameter TimeLimit to value 3600
Set parameter Cuts to value 1
Set parameter Presolve to value 1
Set parameter Heuristics to value 1
Gurobi Optimizer version 11.0.0 build v11.0.0rc2 (win64 - Windows 10.0 (19045.2))

CPU model: Intel(R) Core(TM) i9-10980XE CPU @ 3.00GHz, instruction set [SSE2|AVX|AVX2|AVX512]
Thread count: 18 physical cores, 36 logical processors, using up to 18 threads

Optimize a model with 3171 rows, 883 columns and 8442 nonzeros
Model fingerprint: 0x27e34f79
Variable types: 43 continuous, 840 integer (840 binary)
Coefficient statistics:
  Matrix range     [1e+00, 3e+02]
  Objective range  [1e+00, 1e+00]
  Bounds range     [1e+00, 3e+02]
  RHS range        [1e+00, 3e+02]
Presolve removed 33 rows and 11 columns
Presolve time: 0.01s
Presolved: 3138 rows, 872 columns, 8346 nonzeros
Variable types: 43 continuous, 829 integer (829 binary)

Root relaxation: objective 1.720000e+02, 615 iterations, 0.05 seconds (0.02 work units)

    Nodes    |    Current Node    |     Objective Bounds      |     Work
 Expl Unexpl |  Obj  Depth IntInf | Incumbent    BestBd   Gap | It/Node Time

     0     0  172.00000    0   62          -  172.00000      -     -    0s
     0     0  172.00000    0  156          -  172.00000      -     -    0s
     0     0  175.46667    0  188          -  175.46667      -     -    0s
     0     0  190.54890    0   60          -  190.54890      -     -    0s
     0     0  196.01880    0   74          -  196.01880      -     -    0s
     0     0  196.01880    0   71          -  196.01880      -     -    0s
     0     0  196.01880    0  100          -  196.01880      -     -    0s
     0     0  196.01880    0  120          -  196.01880      -     -    0s
     0     0  196.01880    0  111          -  196.01880      -     -    0s
     0     0  196.01880    0  110          -  196.01880      -     -    0s
     0     0  196.01880    0   78          -  196.01880      -     -    0s
     0     0  196.01880    0  110          -  196.01880      -     -    0s
     0     0  196.01880    0   61          -  196.01880      -     -    0s
     0     0  196.01880    0  101          -  196.01880      -     -    0s
     0     0  196.01880    0   68          -  196.01880      -     -    1s
     0     0  196.01880    0   96          -  196.01880      -     -    1s
     0     0  196.01880    0   55          -  196.01880      -     -    1s
     0     0  196.01880    0  110          -  196.01880      -     -    1s
     0     0  196.01880    0   67          -  196.01880      -     -    1s
     0     0  196.01880    0  114          -  196.01880      -     -    1s
     0     0  196.01880    0   91          -  196.01880      -     -    1s
     0     0  196.01880    0   65          -  196.01880      -     -    1s
     0     2  196.01880    0   62          -  196.01880      -     -    4s
    31    47  212.00000    5   98          -  202.00000      -   147    5s
  3038  1973  286.00000   23   51          -  208.00000      -  33.5   13s
* 3703  2190              49     297.0000000  212.00000  28.6%  13.4   14s
  3938  2239  293.00000   41   35  297.00000  212.00000  28.6%  14.3   15s
H 4115  2176                     294.0000000  212.00000  27.9%  15.1   15s
H 4119  2086                     292.0000000  212.00000  27.4%  15.1   15s
H 4253  1917                     291.0000000  256.00000  12.0%  15.8   16s
H 4269  1832                     289.0000000  257.00000  11.1%  15.9   16s
H 4273  1753                     288.0000000  257.00000  10.8%  15.9   16s
  4829  1213  281.00000   29   72  288.00000  257.00000  10.8%  16.6   22s
H 4857  1131                     287.0000000  257.00000  10.5%  16.6   22s
H 4959  1044                     286.0000000  271.00000  5.24%  16.8   24s
  5018   837     cutoff   36       286.00000  281.00000  1.75%  16.7   25s
  5417   810  284.00000   40   96  286.00000  281.00000  1.75%  16.9   30s
* 5824   681              59     284.0000000  281.00000  1.06%  18.6   34s
  5920   489 infeasible   32       284.00000  281.00000  1.06%  19.0   35s
H 6254   194                     282.0000000  282.00000  0.00%  19.7   36s

Cutting planes:
  Learned: 85
  Cover: 8
  MIR: 20
  Flow cover: 48
  GUB cover: 5
  Relax-and-lift: 14

Explored 6289 nodes (239516 simplex iterations) in 36.98 seconds (36.93 work units)
Thread count was 18 (of 36 available processors)

Solution count 10: 282 284 286 ... 297

Optimal solution found (tolerance 1.00e-04)
Best objective 2.820000000000e+02, best bound 2.820000000000e+02, gap 0.0000%

Gurobi 11.0.0 (win64) logging started Sun Apr 21 19:07:38 2024

Set parameter LogFile to value "./Results/StripPacking_CutsTest_RU/Logs/RU-StripPacking-21.log"
Set parameter TimeLimit to value 3600
Set parameter Cuts to value 1
Set parameter Presolve to value 0
Set parameter Heuristics to value 0
Gurobi Optimizer version 11.0.0 build v11.0.0rc2 (win64 - Windows 10.0 (19045.2))

CPU model: Intel(R) Core(TM) i9-10980XE CPU @ 3.00GHz, instruction set [SSE2|AVX|AVX2|AVX512]
Thread count: 18 physical cores, 36 logical processors, using up to 18 threads

Optimize a model with 3171 rows, 883 columns and 8442 nonzeros
Model fingerprint: 0x27e34f79
Variable types: 43 continuous, 840 integer (840 binary)
Coefficient statistics:
  Matrix range     [1e+00, 3e+02]
  Objective range  [1e+00, 1e+00]
  Bounds range     [1e+00, 3e+02]
  RHS range        [1e+00, 3e+02]
Variable types: 43 continuous, 840 integer (840 binary)

Root relaxation: objective 1.540000e+02, 700 iterations, 0.00 seconds (0.03 work units)

    Nodes    |    Current Node    |     Objective Bounds      |     Work
 Expl Unexpl |  Obj  Depth IntInf | Incumbent    BestBd   Gap | It/Node Time

     0     0  154.00000    0   45          -  154.00000      -     -    0s
     0     0  172.00000    0   36          -  172.00000      -     -    0s
     0     0  172.00000    0  120          -  172.00000      -     -    0s
     0     0  176.27631    0  150          -  176.27631      -     -    0s
     0     0  195.33333    0   70          -  195.33333      -     -    0s
     0     0  195.33333    0   89          -  195.33333      -     -    0s
     0     0  195.33333    0   94          -  195.33333      -     -    0s
     0     0  195.33333    0  105          -  195.33333      -     -    0s
     0     0  195.33333    0   89          -  195.33333      -     -    0s
     0     0  195.33333    0  131          -  195.33333      -     -    0s
     0     0  195.33333    0  121          -  195.33333      -     -    0s
     0     0  195.33333    0  127          -  195.33333      -     -    0s
     0     0  198.00000    0  104          -  198.00000      -     -    0s
     0     0  198.00000    0  122          -  198.00000      -     -    0s
     0     0  198.00000    0  111          -  198.00000      -     -    0s
     0     0  198.00000    0  100          -  198.00000      -     -    0s
     0     0  199.71435    0  117          -  199.71435      -     -    0s
     0     0  199.71435    0  111          -  199.71435      -     -    0s
     0     0  199.71435    0  121          -  199.71435      -     -    0s
     0     0  199.71435    0  124          -  199.71435      -     -    0s
     0     0  199.84512    0  131          -  199.84512      -     -    0s
     0     0  199.84512    0  116          -  199.84512      -     -    0s
     0     0  200.64600    0  141          -  200.64600      -     -    0s
     0     0  200.64600    0  122          -  200.64600      -     -    0s
     0     0  200.64600    0  139          -  200.64600      -     -    0s
     0     0  200.64600    0  114          -  200.64600      -     -    0s
     0     0  202.00000    0   36          -  202.00000      -     -    0s
     0     0  202.00000    0   43          -  202.00000      -     -    0s
     0     0  202.00000    0   67          -  202.00000      -     -    0s
     0     0  202.00000    0   65          -  202.00000      -     -    0s
     0     0  202.00000    0   30          -  202.00000      -     -    1s
     0     0  202.00000    0   85          -  202.00000      -     -    1s
     0     0  202.00000    0   43          -  202.00000      -     -    1s
     0     0  202.00000    0   43          -  202.00000      -     -    1s
     0     2  202.00000    0   41          -  202.00000      -     -    1s
* 3819  1998              53     299.0000000  227.12052  24.0%  39.2    4s
* 3982  1951              60     298.0000000  227.12052  23.8%  39.5    4s
* 4459  1989              80     294.0000000  227.12052  22.7%  39.3    4s
* 4804  1911              76     291.0000000  227.12052  22.0%  39.4    4s
  5214  1748 infeasible   62       291.00000  244.00000  16.2%  39.7    5s
* 8384  1860              68     290.0000000  271.00000  6.55%  32.7    6s
* 8426  1084              63     288.0000000  271.00000  5.90%  32.7    6s
*10717   549              82     286.0000000  276.00000  3.50%  31.2    6s
*12241   963              60     282.0000000  281.00000  0.35%  30.4    7s

Cutting planes:
  Learned: 104
  Cover: 8
  MIR: 11
  Flow cover: 23
  Relax-and-lift: 13

Explored 15257 nodes (437841 simplex iterations) in 8.97 seconds (5.08 work units)
Thread count was 18 (of 36 available processors)

Solution count 8: 282 286 288 ... 299

Optimal solution found (tolerance 1.00e-04)
Best objective 2.820000000000e+02, best bound 2.820000000000e+02, gap 0.0000%

Gurobi 11.0.0 (win64) logging started Sun Apr 21 19:07:47 2024

Set parameter LogFile to value "./Results/StripPacking_CutsTest_RU/Logs/RU-StripPacking-21.log"
Set parameter TimeLimit to value 3600
Set parameter Cuts to value 0
Set parameter Presolve to value 1
Set parameter Heuristics to value 0
Gurobi Optimizer version 11.0.0 build v11.0.0rc2 (win64 - Windows 10.0 (19045.2))

CPU model: Intel(R) Core(TM) i9-10980XE CPU @ 3.00GHz, instruction set [SSE2|AVX|AVX2|AVX512]
Thread count: 18 physical cores, 36 logical processors, using up to 18 threads

Optimize a model with 3171 rows, 883 columns and 8442 nonzeros
Model fingerprint: 0x27e34f79
Variable types: 43 continuous, 840 integer (840 binary)
Coefficient statistics:
  Matrix range     [1e+00, 3e+02]
  Objective range  [1e+00, 1e+00]
  Bounds range     [1e+00, 3e+02]
  RHS range        [1e+00, 3e+02]
Presolve removed 33 rows and 11 columns
Presolve time: 0.00s
Presolved: 3138 rows, 872 columns, 8346 nonzeros
Variable types: 43 continuous, 829 integer (829 binary)

Root relaxation: objective 1.720000e+02, 615 iterations, 0.02 seconds (0.02 work units)

    Nodes    |    Current Node    |     Objective Bounds      |     Work
 Expl Unexpl |  Obj  Depth IntInf | Incumbent    BestBd   Gap | It/Node Time

     0     0  172.00000    0   62          -  172.00000      -     -    0s
     0     0  172.00000    0   52          -  172.00000      -     -    0s
     0     2  172.00000    0   48          -  172.00000      -     -    0s
* 5091  2212              64     297.0000000  198.00000  33.3%  14.8    2s
* 5995  2223              58     296.0000000  223.00000  24.7%  19.9    2s
* 6732  1939              79     294.0000000  234.00000  20.4%  21.7    3s
* 7523  1584              62     293.0000000  234.00000  20.1%  21.6    3s
* 9032  1500              72     290.0000000  271.00000  6.55%  20.8    3s
*10142  1406              57     286.0000000  271.00000  5.24%  20.9    3s
*10890   757              62     286.0000000  281.00000  1.75%  21.7    4s
*12309   901              60     284.0000000  281.00000  1.06%  21.7    4s
*14969   260              57     282.0000000  282.00000  0.00%  20.8    4s

Explored 15130 nodes (450832 simplex iterations) in 5.02 seconds (3.76 work units)
Thread count was 18 (of 36 available processors)

Solution count 9: 282 284 286 ... 297

Optimal solution found (tolerance 1.00e-04)
Best objective 2.820000000000e+02, best bound 2.820000000000e+02, gap 0.0000%

Gurobi 11.0.0 (win64) logging started Sun Apr 21 19:07:52 2024

Set parameter LogFile to value "./Results/StripPacking_CutsTest_RU/Logs/RU-StripPacking-21.log"
Set parameter TimeLimit to value 3600
Set parameter Cuts to value 0
Set parameter Presolve to value 0
Set parameter Heuristics to value 1
Gurobi Optimizer version 11.0.0 build v11.0.0rc2 (win64 - Windows 10.0 (19045.2))

CPU model: Intel(R) Core(TM) i9-10980XE CPU @ 3.00GHz, instruction set [SSE2|AVX|AVX2|AVX512]
Thread count: 18 physical cores, 36 logical processors, using up to 18 threads

Optimize a model with 3171 rows, 883 columns and 8442 nonzeros
Model fingerprint: 0x27e34f79
Variable types: 43 continuous, 840 integer (840 binary)
Coefficient statistics:
  Matrix range     [1e+00, 3e+02]
  Objective range  [1e+00, 1e+00]
  Bounds range     [1e+00, 3e+02]
  RHS range        [1e+00, 3e+02]
Variable types: 43 continuous, 840 integer (840 binary)

Root relaxation: objective 1.540000e+02, 700 iterations, 0.02 seconds (0.03 work units)

    Nodes    |    Current Node    |     Objective Bounds      |     Work
 Expl Unexpl |  Obj  Depth IntInf | Incumbent    BestBd   Gap | It/Node Time

     0     0  154.00000    0   45          -  154.00000      -     -    0s
     0     0  172.00000    0   36          -  172.00000      -     -    0s
     0     0  172.00000    0   36          -  172.00000      -     -    0s
     0     2  172.00000    0   36          -  172.00000      -     -    0s
H 4685  2169                     298.0000000  212.00000  28.9%  38.7    2s
* 4903  2123              54     295.0000000  212.00000  28.1%  38.1    2s
H 5206  1991                     295.0000000  241.00000  18.3%  38.0    3s
H 5259  1935                     294.0000000  271.00000  7.82%  38.0    4s
H 5270  1853                     289.0000000  271.00000  6.23%  37.9    4s
  5448  1814  288.00000   41   28  289.00000  271.00000  6.23%  37.5    6s
H 5450  1738                     286.0000000  271.00000  5.24%  37.5    6s
H 5711  1302                     285.9999999  281.00000  1.75%  36.4    7s
  5864  1318  281.00000   49  102  286.00000  281.00000  1.75%  35.8   10s
* 6249  1251              63     284.0000000  281.00000  1.06%  35.4   14s
  6711  1047  282.00000   64   46  284.00000  281.00000  1.06%  35.3   15s
* 6758   967              62     282.0000000  281.00000  0.35%  35.4   15s

Explored 7633 nodes (251825 simplex iterations) in 15.89 seconds (13.83 work units)
Thread count was 18 (of 36 available processors)

Solution count 9: 282 284 286 ... 298

Optimal solution found (tolerance 1.00e-04)
Best objective 2.820000000000e+02, best bound 2.820000000000e+02, gap 0.0000%

Gurobi 11.0.0 (win64) logging started Sun Apr 21 19:08:08 2024

Set parameter LogFile to value "./Results/StripPacking_CutsTest_RU/Logs/RU-StripPacking-21.log"
Set parameter TimeLimit to value 3600
Set parameter Cuts to value 1
Set parameter Presolve to value 1
Set parameter Heuristics to value 0
Gurobi Optimizer version 11.0.0 build v11.0.0rc2 (win64 - Windows 10.0 (19045.2))

CPU model: Intel(R) Core(TM) i9-10980XE CPU @ 3.00GHz, instruction set [SSE2|AVX|AVX2|AVX512]
Thread count: 18 physical cores, 36 logical processors, using up to 18 threads

Optimize a model with 3171 rows, 883 columns and 8442 nonzeros
Model fingerprint: 0x27e34f79
Variable types: 43 continuous, 840 integer (840 binary)
Coefficient statistics:
  Matrix range     [1e+00, 3e+02]
  Objective range  [1e+00, 1e+00]
  Bounds range     [1e+00, 3e+02]
  RHS range        [1e+00, 3e+02]
Presolve removed 33 rows and 11 columns
Presolve time: 0.00s
Presolved: 3138 rows, 872 columns, 8346 nonzeros
Variable types: 43 continuous, 829 integer (829 binary)

Root relaxation: objective 1.720000e+02, 615 iterations, 0.02 seconds (0.02 work units)

    Nodes    |    Current Node    |     Objective Bounds      |     Work
 Expl Unexpl |  Obj  Depth IntInf | Incumbent    BestBd   Gap | It/Node Time

     0     0  172.00000    0   62          -  172.00000      -     -    0s
     0     0  172.00000    0  156          -  172.00000      -     -    0s
     0     0  175.46667    0  188          -  175.46667      -     -    0s
     0     0  190.54890    0   67          -  190.54890      -     -    0s
     0     0  196.01880    0   84          -  196.01880      -     -    0s
     0     0  196.01880    0   81          -  196.01880      -     -    0s
     0     0  196.01880    0  133          -  196.01880      -     -    0s
     0     0  196.51835    0  160          -  196.51835      -     -    0s
     0     0  196.51835    0  137          -  196.51835      -     -    0s
     0     0  196.51835    0  128          -  196.51835      -     -    0s
     0     0  196.51835    0   54          -  196.51835      -     -    0s
     0     0  196.51835    0   74          -  196.51835      -     -    0s
     0     0  196.51835    0   64          -  196.51835      -     -    0s
     0     0  196.51835    0   83          -  196.51835      -     -    0s
     0     0  196.51835    0   74          -  196.51835      -     -    0s
     0     0  196.90909    0   90          -  196.90909      -     -    0s
     0     0  196.90909    0  100          -  196.90909      -     -    0s
     0     0  198.00000    0   89          -  198.00000      -     -    0s
     0     2  198.00000    0   71          -  198.00000      -     -    1s
* 5038  2337              55     297.0000000  240.00000  19.2%  12.4    4s
* 5359  2252              57     296.0000000  240.00000  18.9%  14.1    4s
* 5400  2131              71     293.0000000  240.00000  18.1%  14.3    4s
* 5948  2079              66     288.0000000  240.00000  16.7%  16.9    4s
  5971  1971 infeasible   23       288.00000  240.00000  16.7%  17.0    5s
* 7154  1643              57     286.0000000  281.00000  1.75%  19.2    5s
* 7320  1505              63     284.0000000  281.00000  1.06%  19.5    5s
* 8536    69              60     282.0000000  281.00000  0.35%  18.2    7s

Cutting planes:
  Learned: 114
  Cover: 9
  MIR: 14
  Flow cover: 34
  GUB cover: 2
  Inf proof: 2
  RLT: 1
  Relax-and-lift: 10

Explored 8681 nodes (292849 simplex iterations) in 7.35 seconds (3.74 work units)
Thread count was 18 (of 36 available processors)

Solution count 7: 282 284 286 ... 297

Optimal solution found (tolerance 1.00e-04)
Best objective 2.820000000000e+02, best bound 2.820000000000e+02, gap 0.0000%

Gurobi 11.0.0 (win64) logging started Sun Apr 21 19:08:15 2024

Set parameter LogFile to value "./Results/StripPacking_CutsTest_RU/Logs/RU-StripPacking-21.log"
Set parameter TimeLimit to value 3600
Set parameter Cuts to value 1
Set parameter Presolve to value 0
Set parameter Heuristics to value 1
Gurobi Optimizer version 11.0.0 build v11.0.0rc2 (win64 - Windows 10.0 (19045.2))

CPU model: Intel(R) Core(TM) i9-10980XE CPU @ 3.00GHz, instruction set [SSE2|AVX|AVX2|AVX512]
Thread count: 18 physical cores, 36 logical processors, using up to 18 threads

Optimize a model with 3171 rows, 883 columns and 8442 nonzeros
Model fingerprint: 0x27e34f79
Variable types: 43 continuous, 840 integer (840 binary)
Coefficient statistics:
  Matrix range     [1e+00, 3e+02]
  Objective range  [1e+00, 1e+00]
  Bounds range     [1e+00, 3e+02]
  RHS range        [1e+00, 3e+02]
Variable types: 43 continuous, 840 integer (840 binary)

Root relaxation: objective 1.540000e+02, 700 iterations, 0.02 seconds (0.03 work units)

    Nodes    |    Current Node    |     Objective Bounds      |     Work
 Expl Unexpl |  Obj  Depth IntInf | Incumbent    BestBd   Gap | It/Node Time

     0     0  154.00000    0   45          -  154.00000      -     -    0s
     0     0  172.00000    0   36          -  172.00000      -     -    0s
     0     0  172.00000    0  120          -  172.00000      -     -    0s
     0     0  176.27631    0  150          -  176.27631      -     -    0s
     0     0  195.33333    0   82          -  195.33333      -     -    0s
     0     0  195.33333    0  121          -  195.33333      -     -    0s
     0     0  195.33333    0  121          -  195.33333      -     -    0s
     0     0  195.33333    0  138          -  195.33333      -     -    0s
     0     0  195.33333    0  126          -  195.33333      -     -    0s
     0     0  195.33333    0  124          -  195.33333      -     -    0s
     0     0  195.33333    0  125          -  195.33333      -     -    0s
     0     0  195.33333    0   69          -  195.33333      -     -    0s
     0     0  201.20733    0  111          -  201.20733      -     -    0s
     0     0  201.20733    0  106          -  201.20733      -     -    0s
     0     0  201.20733    0  147          -  201.20733      -     -    0s
     0     0  201.20733    0  137          -  201.20733      -     -    0s
     0     0  201.20733    0  127          -  201.20733      -     -    0s
     0     0  201.20733    0  124          -  201.20733      -     -    0s
     0     0  201.20733    0  110          -  201.20733      -     -    0s
     0     0  201.20733    0  117          -  201.20733      -     -    0s
     0     0  201.20733    0  117          -  201.20733      -     -    0s
     0     0  201.20733    0  133          -  201.20733      -     -    0s
     0     0  201.20733    0  126          -  201.20733      -     -    1s
     0     0  201.20733    0  129          -  201.20733      -     -    1s
     0     0  201.20733    0  131          -  201.20733      -     -    1s
     0     0  201.20733    0  136          -  201.20733      -     -    1s
     0     0  201.20733    0  132          -  201.20733      -     -    1s
     0     0  201.20733    0  123          -  201.20733      -     -    1s
     0     0  201.20733    0  135          -  201.20733      -     -    1s
     0     0  201.20733    0  128          -  201.20733      -     -    1s
     0     0  201.20733    0  119          -  201.20733      -     -    1s
     0     0  201.20733    0  117          -  201.20733      -     -    1s
     0     0  201.20733    0   78          -  201.20733      -     -    1s
     0     0  201.20733    0  101          -  201.20733      -     -    1s
     0     0  201.20733    0   60          -  201.20733      -     -    1s
     0     0  201.20733    0   80          -  201.20733      -     -    1s
     0     0  201.20733    0   58          -  201.20733      -     -    1s
     0     0  201.20733    0   78          -  201.20733      -     -    1s
     0     0  201.20733    0   47          -  201.20733      -     -    1s
     0     0  201.20733    0   95          -  201.20733      -     -    1s
     0     0  201.20733    0   43          -  201.20733      -     -    1s
     0     0  201.20733    0   43          -  201.20733      -     -    1s
     0     2  201.20733    0   43          -  201.20733      -     -    1s
  3748  2023  268.00000    8   59          -  212.00000      -  22.8    5s
* 4589  2308              47     299.0000000  223.00000  25.4%  30.3    5s
* 4730  2247              52     298.0000000  223.00000  25.2%  30.3    6s
H 4921  2165                     292.0000000  223.00000  23.6%  30.8    6s
H 5033  2000                     291.0000000  223.00000  23.4%  31.2    8s
  5133  2046 infeasible   22       291.00000  271.00000  6.87%  31.4   11s
H 5135  1964                     290.0000000  271.00000  6.55%  31.4   11s
H 5135  1885                     288.0000000  271.00000  5.90%  31.4   11s
  5420  1702  281.00000   26  144  288.00000  271.00000  5.90%  32.3   16s
H 5505  1642                     286.0000000  271.00000  5.24%  32.5   19s
  5805  1192  282.00000   29  104  286.00000  271.00000  5.24%  31.0   23s
  5911  1116  282.00000   30  101  286.00000  271.00000  5.24%  30.6   25s
  6166  1120 infeasible   36       286.00000  271.00000  5.24%  30.0   31s
  6399  1122     cutoff   44       286.00000  281.00000  1.75%  29.9   37s
* 6527  1061              46     285.0000000  281.00000  1.40%  29.9   37s
H 6602   889                     284.0000000  281.00000  1.06%  29.8   38s
H 7076   403                     282.0000000  281.00000  0.35%  29.2   39s
  7118   104     cutoff   44       282.00000  281.00000  0.35%  29.2   40s

Cutting planes:
  Learned: 100
  Cover: 15
  Implied bound: 1
  MIR: 37
  Flow cover: 72
  GUB cover: 5
  Zero half: 4
  RLT: 1
  Relax-and-lift: 16

Explored 7454 nodes (225316 simplex iterations) in 42.58 seconds (42.17 work units)
Thread count was 18 (of 36 available processors)

Solution count 10: 282 284 285 ... 299

Optimal solution found (tolerance 1.00e-04)
Best objective 2.820000000000e+02, best bound 2.820000000000e+02, gap 0.0000%

Gurobi 11.0.0 (win64) logging started Sun Apr 21 19:08:58 2024

Set parameter LogFile to value "./Results/StripPacking_CutsTest_RU/Logs/RU-StripPacking-21.log"
Set parameter TimeLimit to value 3600
Set parameter Cuts to value 0
Set parameter Presolve to value 1
Set parameter Heuristics to value 1
Gurobi Optimizer version 11.0.0 build v11.0.0rc2 (win64 - Windows 10.0 (19045.2))

CPU model: Intel(R) Core(TM) i9-10980XE CPU @ 3.00GHz, instruction set [SSE2|AVX|AVX2|AVX512]
Thread count: 18 physical cores, 36 logical processors, using up to 18 threads

Optimize a model with 3171 rows, 883 columns and 8442 nonzeros
Model fingerprint: 0x27e34f79
Variable types: 43 continuous, 840 integer (840 binary)
Coefficient statistics:
  Matrix range     [1e+00, 3e+02]
  Objective range  [1e+00, 1e+00]
  Bounds range     [1e+00, 3e+02]
  RHS range        [1e+00, 3e+02]
Presolve removed 33 rows and 11 columns
Presolve time: 0.00s
Presolved: 3138 rows, 872 columns, 8346 nonzeros
Variable types: 43 continuous, 829 integer (829 binary)

Root relaxation: objective 1.720000e+02, 615 iterations, 0.02 seconds (0.02 work units)

    Nodes    |    Current Node    |     Objective Bounds      |     Work
 Expl Unexpl |  Obj  Depth IntInf | Incumbent    BestBd   Gap | It/Node Time

     0     0  172.00000    0   62          -  172.00000      -     -    0s
     0     0  172.00000    0   57          -  172.00000      -     -    0s
     0     2  172.00000    0   51          -  172.00000      -     -    2s
  3679  2015  281.00000   11   57          -  202.00000      -  29.6   10s
* 4524  2239              63     300.0000000  202.00000  32.7%  13.6   12s
* 4632  2160              56     299.0000000  202.00000  32.4%  14.6   12s
H 4742  2118                     298.0000000  202.00000  32.2%  15.4   12s
H 4987  2107                     296.0000000  202.00000  31.8%  16.9   14s
H 4991  2022                     292.0000000  202.00000  30.8%  17.0   14s
H 5000  1941                     290.0000000  202.00000  30.3%  17.0   14s
H 5142  1742                     288.0000000  202.00000  29.9%  18.0   17s
H 5145  1671                     286.0000000  202.00000  29.4%  18.0   17s
  5742   944  281.00000   32   95  286.00000  281.00000  1.75%  17.5   22s
  5922   886  281.00000   34   90  286.00000  281.00000  1.75%  17.3   26s
  6119   881  281.00000   40  109  286.00000  281.00000  1.75%  18.2   31s
  6157   867 infeasible   41       286.00000  281.00000  1.75%  18.4   36s
  6275   814  281.00000   32  148  286.00000  281.00000  1.75%  18.7   41s
* 6348   723              55     284.0000000  281.00000  1.06%  18.9   44s
  6417   475 infeasible   39       284.00000  281.00000  1.06%  19.0   45s
H 6692   310                     284.0000000  282.00000  0.70%  18.7   46s
H 6765   235                     282.0000000  282.00000  0.00%  18.7   46s

Explored 6806 nodes (238754 simplex iterations) in 46.76 seconds (40.52 work units)
Thread count was 18 (of 36 available processors)

Solution count 10: 282 284 284 ... 299

Optimal solution found (tolerance 1.00e-04)
Best objective 2.820000000000e+02, best bound 2.820000000000e+02, gap 0.0000%

Gurobi 11.0.0 (win64) logging started Sun Apr 21 19:09:45 2024

Set parameter LogFile to value "./Results/StripPacking_CutsTest_RU/Logs/RU-StripPacking-21.log"
Set parameter TimeLimit to value 3600
Set parameter Cuts to value 0
Set parameter Presolve to value 0
Set parameter Heuristics to value 0
Gurobi Optimizer version 11.0.0 build v11.0.0rc2 (win64 - Windows 10.0 (19045.2))

CPU model: Intel(R) Core(TM) i9-10980XE CPU @ 3.00GHz, instruction set [SSE2|AVX|AVX2|AVX512]
Thread count: 18 physical cores, 36 logical processors, using up to 18 threads

Optimize a model with 3171 rows, 883 columns and 8442 nonzeros
Model fingerprint: 0x27e34f79
Variable types: 43 continuous, 840 integer (840 binary)
Coefficient statistics:
  Matrix range     [1e+00, 3e+02]
  Objective range  [1e+00, 1e+00]
  Bounds range     [1e+00, 3e+02]
  RHS range        [1e+00, 3e+02]
Variable types: 43 continuous, 840 integer (840 binary)

Root relaxation: objective 1.540000e+02, 700 iterations, 0.02 seconds (0.03 work units)

    Nodes    |    Current Node    |     Objective Bounds      |     Work
 Expl Unexpl |  Obj  Depth IntInf | Incumbent    BestBd   Gap | It/Node Time

     0     0  154.00000    0   45          -  154.00000      -     -    0s
     0     0  172.00000    0   36          -  172.00000      -     -    0s
     0     0  172.00000    0   36          -  172.00000      -     -    0s
     0     2  172.00000    0   36          -  172.00000      -     -    0s
* 4366  1984              56     297.0000000  182.00000  38.7%  43.8    2s
* 4513  1872              64     296.0000000  182.00000  38.5%  43.4    2s
* 5315  1981              62     295.0000000  182.00000  38.3%  42.4    2s
* 5450  1895              67     294.0000000  182.00000  38.1%  42.2    2s
* 5722  1783              69     291.0000000  212.00000  27.1%  41.3    2s
* 5808  1600              62     290.0000000  256.00000  11.7%  41.2    2s
* 8203  1087              57     288.0000000  271.00000  5.90%  36.5    3s
  9916   884  278.00000   46   71  288.00000  271.00000  5.90%  35.6    5s
*12577   586              59     287.0000000  275.00000  4.18%  33.8    5s
*12817   680              65     286.0000000  281.00000  1.75%  33.7    5s
*16540  1116              50     283.0000000  281.00000  0.71%  29.4    6s
*17594   491              51     282.0000000  281.00000  0.35%  30.2    7s

Explored 19401 nodes (576228 simplex iterations) in 7.78 seconds (4.71 work units)
Thread count was 18 (of 36 available processors)

Solution count 10: 282 283 286 ... 296

Optimal solution found (tolerance 1.00e-04)
Best objective 2.820000000000e+02, best bound 2.820000000000e+02, gap 0.0000%
